CPXPARAM_MIP_Cuts_Covers#P14#0#2.256324#0.532240
CPXPARAM_MIP_Cuts_Covers#P14#1#4.239300#1.000000
CPXPARAM_MIP_Strategy_NodeSelect#P39#1#3.492354#0.823804
CPXPARAM_MIP_Strategy_NodeSelect#P39#2#4.134012#0.975164
CPXPARAM_MIP_Strategy_NodeSelect#P39#3#1.076833#0.254012
